(set-logic QF_UF)
(declare-fun A0 () Bool)
(declare-fun A1 () Bool)
(declare-fun A2 () Bool)
(declare-fun A3 () Bool)
(declare-fun A4 () Bool)
(declare-fun A5 () Bool)
(declare-fun A6 () Bool)
(declare-fun A7 () Bool)
(declare-fun A8 () Bool)
(declare-fun A9 () Bool)
(declare-fun A10 () Bool)
(declare-fun A11 () Bool)
(declare-fun A12 () Bool)
(declare-fun A13 () Bool)
(declare-fun A14 () Bool)
(declare-fun A15 () Bool)
(declare-fun A16 () Bool)
(declare-fun A17 () Bool)
(declare-fun A18 () Bool)
(declare-fun A20 () Bool)
(declare-fun A21 () Bool)
(declare-fun A22 () Bool)
(declare-fun A23 () Bool)
(declare-fun A24 () Bool)
(assert (let ((.def_0 (not A3))) (let ((.def_1 (and .def_0 A15))) (let ((.def_2 (= A14 A4))) (let ((.def_3 (not .def_2))) (let ((.def_4 (or .def_3 .def_1))) (let ((.def_5 (not .def_4))) (let ((.def_6 (not A20))) (let ((.def_7 (not A22))) (let ((.def_8 (or .def_7 .def_6))) (let ((.def_9 (not .def_8))) (let ((.def_10 (and A13 A5))) (let ((.def_11 (or .def_10 .def_9))) (let ((.def_12 (not .def_11))) (let ((.def_13 (or .def_12 .def_5))) (let ((.def_14 (or A20 A4))) (let ((.def_15 (not A5))) (let ((.def_16 (= .def_15 A6))) (let ((.def_17 (and .def_16 .def_14))) (let ((.def_18 (not .def_17))) (let ((.def_19 (not A24))) (let ((.def_20 (and .def_15 .def_19))) (let ((.def_21 (not .def_20))) (let ((.def_22 (not A21))) (let ((.def_23 (and A11 .def_22))) (let ((.def_24 (and .def_23 .def_21))) (let ((.def_25 (or .def_24 .def_18))) (let ((.def_26 (and .def_25 .def_13))) (let ((.def_27 (not .def_26))) (let ((.def_28 (or A18 A7))) (let ((.def_29 (not .def_28))) (let ((.def_30 (and A23 .def_15))) (let ((.def_31 (not .def_30))) (let ((.def_32 (and .def_31 .def_29))) (let ((.def_33 (not .def_32))) (let ((.def_34 (not A2))) (let ((.def_35 (not A10))) (let ((.def_36 (or .def_35 .def_34))) (let ((.def_37 (not A16))) (let ((.def_38 (= .def_15 .def_37))) (let ((.def_39 (not .def_38))) (let ((.def_40 (or .def_39 .def_36))) (let ((.def_41 (and .def_40 .def_33))) (let ((.def_42 (not A18))) (let ((.def_43 (and .def_34 .def_42))) (let ((.def_44 (not A4))) (let ((.def_45 (or A9 .def_44))) (let ((.def_46 (or .def_45 .def_43))) (let ((.def_47 (not .def_46))) (let ((.def_48 (or .def_35 A12))) (let ((.def_49 (and A11 A9))) (let ((.def_50 (not .def_49))) (let ((.def_51 (or .def_50 .def_48))) (let ((.def_52 (or .def_51 .def_47))) (let ((.def_53 (= .def_52 .def_41))) (let ((.def_54 (not .def_53))) (let ((.def_55 (or .def_54 .def_27))) (let ((.def_56 (not .def_55))) (let ((.def_57 (not A7))) (let ((.def_58 (not A17))) (let ((.def_59 (and .def_58 .def_57))) (let ((.def_60 (not A0))) (let ((.def_61 (= .def_60 A3))) (let ((.def_62 (or .def_61 .def_59))) (let ((.def_63 (or A2 .def_34))) (let ((.def_64 (not .def_63))) (let ((.def_65 (or .def_42 .def_15))) (let ((.def_66 (or .def_65 .def_64))) (let ((.def_67 (or .def_66 .def_62))) (let ((.def_68 (not .def_67))) (let ((.def_69 (and A22 .def_37))) (let ((.def_70 (and A11 .def_60))) (let ((.def_71 (not .def_70))) (let ((.def_72 (and .def_71 .def_69))) (let ((.def_73 (not .def_72))) (let ((.def_74 (not A6))) (let ((.def_75 (or A10 .def_74))) (let ((.def_76 (not .def_75))) (let ((.def_77 (and A11 A14))) (let ((.def_78 (not .def_77))) (let ((.def_79 (and .def_78 .def_76))) (let ((.def_80 (and .def_79 .def_73))) (let ((.def_81 (not .def_80))) (let ((.def_82 (or .def_81 .def_68))) (let ((.def_83 (= A23 .def_44))) (let ((.def_84 (= A0 .def_0))) (let ((.def_85 (or .def_84 .def_83))) (let ((.def_86 (not .def_85))) (let ((.def_87 (not A12))) (let ((.def_88 (or A9 .def_87))) (let ((.def_89 (not .def_88))) (let ((.def_90 (not A8))) (let ((.def_91 (= .def_90 .def_6))) (let ((.def_92 (not .def_91))) (let ((.def_93 (or .def_92 .def_89))) (let ((.def_94 (or .def_93 .def_86))) (let ((.def_95 (not A1))) (let ((.def_96 (or A0 .def_95))) (let ((.def_97 (not A9))) (let ((.def_98 (= .def_15 .def_97))) (let ((.def_99 (not .def_98))) (let ((.def_100 (and .def_99 .def_96))) (let ((.def_101 (and A8 .def_6))) (let ((.def_102 (and .def_22 A6))) (let ((.def_103 (or .def_102 .def_101))) (let ((.def_104 (or .def_103 .def_100))) (let ((.def_105 (not .def_104))) (let ((.def_106 (or .def_105 .def_94))) (let ((.def_107 (or .def_106 .def_82))) (let ((.def_108 (not .def_107))) (let ((.def_109 (or .def_108 .def_56))) (let ((.def_110 (not .def_109))) .def_110))))))))))))))))))))))))))))))))))))))))))))))))))))))))))))))))))))))))))))))))))))))))))))))))))))))))))))))))
(check-sat)
